RT is False
Default write of storage_offers_DA.csv just to have a file (but constraint should be inactive)
Reading model...
...model read.
creating competitive generators file...
...competitive generators recorded.
Loading data...
.. day-ahead data with real-time VRE data read.
Compiling instance...
...instance created.
Creating Offer Mitigation (model will solve as dispatch if TRUE)...
NOTE: storage offers will not be mitigated
...storage offer mitigation file created
Converting model to MPEC...
...converted
NOTE: initial MIP solve with only storage competitive to get feasible solution
Solving...

Welcome to IBM(R) ILOG(R) CPLEX(R) Interactive Optimizer 12.9.0.0
  with Simplex, Mixed Integer & Barrier Optimizers
5725-A06 5725-A29 5724-Y48 5724-Y49 5724-Y54 5724-Y55 5655-Y21
Copyright IBM Corp. 1988, 2019.  All Rights Reserved.

Type 'help' for a list of available commands.
Type 'help' followed by a command name for more
information on commands.

CPLEX> Logfile 'cplex.log' closed.
Logfile 'C:\Users\llavin\Desktop\test826\logs\tmpbkw6mv1b.cplex.log' open.
CPLEX> New value for parallel optimization mode: -1
CPLEX> New value for emphasis for MIP optimization: 1
CPLEX> New value for mixed integer optimality gap tolerance: 0.01
CPLEX> New value for integrality tolerance: 1e-12
CPLEX> New value for deterministic time limit in ticks: 75000
CPLEX> Problem 'C:\Users\llavin\Desktop\test826\logs\tmp4_6i39ch.pyomo.lp' read.
Read time = 0.22 sec. (13.92 ticks)
CPLEX> Problem name         : C:\Users\llavin\Desktop\test826\logs\tmp4_6i39ch.pyomo.lp
Objective sense      : Maximize
Variables            :   53809  [Nneg: 1,  Box: 22004,  Free: 4464,
                                 Binary: 27340]
Objective nonzeros   :    9029
Linear constraints   :  123253  [Less: 41346,  Greater: 59096,  Equal: 22811]
  Nonzeros           :  293217
  RHS nonzeros       :   67491

Variables            : Min LB: -5000.000        Max UB: 1000000.       
Objective nonzeros   : Min   : 0.3583333        Max   : 2500.000       
Linear constraints   :
  Nonzeros           : Min   : 0.3583333        Max   : 1000000.       
  RHS nonzeros       : Min   : 0.3583333        Max   : 1000000.       
CPLEX> CPXPARAM_Parallel                                -1
CPXPARAM_Emphasis_MIP                            1
CPXPARAM_DetTimeLimit                            75000
CPXPARAM_MIP_Tolerances_MIPGap                   0.01
CPXPARAM_MIP_Tolerances_Integrality              9.9999999999999998e-13
Tried aggregator 4 times.
MIP Presolve eliminated 88673 rows and 18976 columns.
MIP Presolve added 3373 rows and 0 columns.
MIP Presolve modified 24833 coefficients.
Aggregator did 12975 substitutions.
Reduced MIP has 24978 rows, 21302 columns, and 71868 nonzeros.
Reduced MIP has 8420 binaries, 0 generals, 0 SOSs, and 0 indicators.
Presolve time = 0.31 sec. (192.33 ticks)
Probing fixed 389 vars, tightened 4161 bounds.
Probing time = 0.06 sec. (18.82 ticks)
Tried aggregator 2 times.
MIP Presolve eliminated 879 rows and 784 columns.
MIP Presolve modified 3040 coefficients.
Aggregator did 37 substitutions.
Reduced MIP has 24062 rows, 20481 columns, and 69205 nonzeros.
Reduced MIP has 8029 binaries, 0 generals, 0 SOSs, and 0 indicators.
Presolve time = 0.11 sec. (89.73 ticks)
Probing fixed 0 vars, tightened 254 bounds.
Probing time = 0.13 sec. (22.50 ticks)
Clique table members: 44761.
MIP emphasis: integer feasibility.
MIP search method: dynamic search.
Parallel mode: opportunistic, using up to 32 threads.
Root relaxation solution time = 0.41 sec. (610.82 ticks)

        Nodes                                         Cuts/
   Node  Left     Objective  IInf  Best Integer    Best Bound    ItCnt     Gap

      0     0     3883.2138   143                   3883.2138     5251         
      0     0     3883.2138    12                    Cuts: 16     5257         
      0     0     3883.2138    13                     Cuts: 3     5260         
      0     0     3878.7550    12                     Cuts: 2     5266         
      0    32     3814.6838     7                     Cuts: 7     5477         
Elapsed time = 3.83 sec. (1747.74 ticks, tree = 0.02 MB, solutions = 0)
    543   364     3774.9736     8                   3861.8183     7536         
    889   624     3712.0718     7                   3861.8183    10700         
   1192   752    infeasible                         3861.8183    12373         
   1420   834     3771.4031     6                   3861.8183    13464         
   1623   929    infeasible                         3861.8183    16011         
   1779   988    infeasible                         3861.8183    17007         
   1910   979   -36114.5183    17                   3861.8183    16786         
   2035  1007    infeasible                         3861.8183    17144         
   2151  1009     3759.3931     6                   3861.8183    17140         
   2513  1042    infeasible                         3861.8183    18490         
Elapsed time = 13.39 sec. (4861.09 ticks, tree = 4.04 MB, solutions = 0)
   2816  1045     3735.5555     6                   3861.8183    18557         
   3046  1042    infeasible                         3861.8183    18673         
   3243  1042    infeasible                         3861.8183    18752         
   3445  1045    infeasible                         3861.8183    18918         
   3634  1047     3761.5145     6                   3861.8183    18832         
   3831  1046    infeasible                         3861.8183    19043         
   3985  1044    infeasible                         3861.8183    19111         
   4127  1045     3759.3931     6                   3861.8183    19123         
   4397  1051     3687.9642     1                   3861.8183    19362         
   4717  1047    infeasible                         3861.8183    19325         
Elapsed time = 28.13 sec. (14434.56 ticks, tree = 4.08 MB, solutions = 1)
*  4903+  806                         3696.7146     3861.8183             4.47%
   5172  1027     3795.3200     9     3696.7146     3861.8183    21573    4.47%
   5430   818     3759.3931     6     3696.7146     3861.8183    23194    4.47%
   5690   878     3759.3931     6     3696.7146     3861.8183    21537    4.47%
   5943   858     3759.3931     6     3696.7146     3861.8183    21564    4.47%
   6188   837     3771.4031     6     3696.7146     3861.8183    21595    4.47%
   6475   788     3860.2809     6     3696.7146     3861.8183    22387    4.47%
   6753   891     3704.9804     2     3696.7146     3861.8183    23682    4.47%
   6979   948     3735.5555     6     3779.6632     3861.8183    24614    2.17%
   7195   966     3753.1920     6     3808.8429     3861.8183    25022    1.39%
Elapsed time = 47.86 sec. (23799.85 ticks, tree = 4.51 MB, solutions = 7)
   7418   948        cutoff           3808.8429     3861.8183    24621    1.39%
   7733   582     3817.1914     1     3808.8429     3861.8183    25464    1.39%
   8030   536        cutoff           3808.8429     3861.8183    25525    1.39%
*  8123   451      integral     0     3813.9349     3861.8183    25750    1.26%
*  8254   522      integral     0     3823.7590     3861.8183    25626    1.00%
*  8485   466      integral     0     3823.7590     3861.8183    25736    1.00%
   8637   489     3816.1478     6     3823.7590     3861.8183    25696    1.00%

Cover cuts applied:  10
Implied bound cuts applied:  2
Flow cuts applied:  13
Mixed integer rounding cuts applied:  1
Gomory fractional cuts applied:  5

Root node processing (before b&c):
  Real time             =    2.41 sec. (1722.24 ticks)
Parallel b&c, 32 threads:
  Real time             =   48.38 sec. (27886.34 ticks)
  Sync time (average)   =    0.99 sec.
  Wait time (average)   =    0.00 sec.
                          ------------
Total (root+branch&cut) =   50.78 sec. (29608.58 ticks)

Solution pool: 7 solutions saved.

MIP - Integer optimal, tolerance (0.01/1e-06):  Objective =  3.8237589621e+03
Current MIP best bound =  3.8618182798e+03 (gap = 38.0593, 1.00%)
Solution time =   50.81 sec.  Iterations = 27753  Nodes = 8657 (328)
Deterministic time = 29608.73 ticks  (582.71 ticks/sec)

CPLEX> Incumbent solution written to file 'C:\Users\llavin\Desktop\test826\logs\tmp0r8s77mi.cplex.sol'.
CPLEX> NOTE: no warmstart specified for MIP iteration, default behavior is true
NOTE: resolving with all competitive generators using storage-only solution to warmstart
Solving...

Welcome to IBM(R) ILOG(R) CPLEX(R) Interactive Optimizer 12.9.0.0
  with Simplex, Mixed Integer & Barrier Optimizers
5725-A06 5725-A29 5724-Y48 5724-Y49 5724-Y54 5724-Y55 5655-Y21
Copyright IBM Corp. 1988, 2019.  All Rights Reserved.

Type 'help' for a list of available commands.
Type 'help' followed by a command name for more
information on commands.

CPLEX> Logfile 'cplex.log' closed.
Logfile 'C:\Users\llavin\Desktop\test826\logs\tmpb9lg2u0z.cplex.log' open.
CPLEX> New value for parallel optimization mode: -1
CPLEX> New value for emphasis for MIP optimization: 1
CPLEX> New value for mixed integer optimality gap tolerance: 0.01
CPLEX> New value for integrality tolerance: 1e-12
CPLEX> New value for deterministic time limit in ticks: 75000
CPLEX> Problem 'C:\Users\llavin\Desktop\test826\logs\tmp2pe5g9hr.pyomo.lp' read.
Read time = 0.23 sec. (13.94 ticks)
CPLEX> MIP start file 'C:\Users\llavin\Desktop\test826\logs\tmpm_hbzfbh.cplex.mst' read.
CPLEX> Problem name         : C:\Users\llavin\Desktop\test826\logs\tmp2pe5g9hr.pyomo.lp
Objective sense      : Maximize
Variables            :   54529  [Nneg: 1,  Box: 22724,  Free: 4464,
                                 Binary: 27340]
Objective nonzeros   :    9749
Linear constraints   :  123253  [Less: 41346,  Greater: 59096,  Equal: 22811]
  Nonzeros           :  293217
  RHS nonzeros       :   67491

Variables            : Min LB: -5000.000        Max UB: 1000000.       
Objective nonzeros   : Min   : 0.3583333        Max   : 2500.000       
Linear constraints   :
  Nonzeros           : Min   : 0.3583333        Max   : 1000000.       
  RHS nonzeros       : Min   : 0.3583333        Max   : 1000000.       
CPLEX> CPXPARAM_Parallel                                -1
CPXPARAM_Emphasis_MIP                            1
CPXPARAM_DetTimeLimit                            75000
CPXPARAM_MIP_Tolerances_MIPGap                   0.01
CPXPARAM_MIP_Tolerances_Integrality              9.9999999999999998e-13
Warning:  No solution found from 1 MIP starts.
Retaining values of one MIP start for possible repair.
Tried aggregator 4 times.
MIP Presolve eliminated 88673 rows and 19696 columns.
MIP Presolve added 3373 rows and 0 columns.
MIP Presolve modified 24833 coefficients.
Aggregator did 12975 substitutions.
Reduced MIP has 24978 rows, 21302 columns, and 71868 nonzeros.
Reduced MIP has 8420 binaries, 0 generals, 0 SOSs, and 0 indicators.
Presolve time = 0.33 sec. (192.74 ticks)
Probing fixed 389 vars, tightened 4161 bounds.
Probing time = 0.06 sec. (18.82 ticks)
Tried aggregator 2 times.
MIP Presolve eliminated 879 rows and 784 columns.
MIP Presolve modified 3040 coefficients.
Aggregator did 37 substitutions.
Reduced MIP has 24062 rows, 20481 columns, and 69205 nonzeros.
Reduced MIP has 8029 binaries, 0 generals, 0 SOSs, and 0 indicators.
Presolve time = 0.11 sec. (89.73 ticks)
Probing fixed 0 vars, tightened 254 bounds.
Probing time = 0.14 sec. (22.50 ticks)
Clique table members: 44761.
MIP emphasis: integer feasibility.
MIP search method: dynamic search.
Parallel mode: opportunistic, using up to 32 threads.
Root relaxation solution time = 0.42 sec. (610.82 ticks)

        Nodes                                         Cuts/
   Node  Left     Objective  IInf  Best Integer    Best Bound    ItCnt     Gap

      0     0     3883.2138   143                   3883.2138     5251         
      0     0     3883.2138    12                    Cuts: 16     5257         
      0     0     3883.2138    13                     Cuts: 3     5260         
      0     0     3878.7550    12                     Cuts: 2     5266         
Repair heuristic found nothing.
      0     7    infeasible                           Cuts: 5     5308         
Elapsed time = 3.66 sec. (1764.87 ticks, tree = 0.02 MB, solutions = 0)
    510   375     3719.7095     9                   3861.8183     7803         
    891   656   -57895.3657    24                   3861.8183    10807         
   1224   828     1624.5670     8                   3861.8183    13029         
   1447   968    infeasible                         3861.8183    16336         
   1638   967    infeasible                         3861.8183    16332         
   1773   982    infeasible                         3861.8183    16484         
   1895   994     3794.3288     6                   3861.8183    16626         
   2005  1004     3793.4656     6                   3861.8183    16799         
   2104  1003    infeasible                         3861.8183    16808         
   2431  1006     3794.3288     6                   3861.8183    16974         
Elapsed time = 15.09 sec. (4882.00 ticks, tree = 3.95 MB, solutions = 0)
   2707  1003    infeasible                         3861.8183    17038         
   2940  1006    infeasible                         3861.8183    17176         
   3152  1007     3775.3313     6                   3861.8183    17265         
   3352  1005     3793.4656     6                   3861.8183    17379         
   3549  1002    infeasible                         3861.8183    17473         
   3712  1002     3784.9981     6                   3861.8183    17515         
   3889  1001     3761.5145     6                   3861.8183    17612         
   4043  1013     3707.0970    11                   3861.8183    17717         
   4276  1006    infeasible                         3861.8183    17765         
*  4306  1000      integral     0     3824.8625     3861.8183    17849    0.97%
Elapsed time = 26.59 sec. (13667.97 ticks, tree = 3.91 MB, solutions = 2)
   4384  1020     3761.5145     7     3824.8625     3861.8183    17863    0.97%

Cover cuts applied:  9
Implied bound cuts applied:  2
Flow cuts applied:  13
Mixed integer rounding cuts applied:  1
Gomory fractional cuts applied:  5

Root node processing (before b&c):
  Real time             =    2.58 sec. (1760.69 ticks)
Parallel b&c, 32 threads:
  Real time             =   24.77 sec. (13540.21 ticks)
  Sync time (average)   =    1.03 sec.
  Wait time (average)   =    0.00 sec.
                          ------------
Total (root+branch&cut) =   27.34 sec. (15300.90 ticks)

Solution pool: 2 solutions saved.

MIP - Integer optimal, tolerance (0.01/1e-06):  Objective =  3.8248625127e+03
Current MIP best bound =  3.8618182798e+03 (gap = 36.9558, 0.97%)
Solution time =   27.38 sec.  Iterations = 19209  Nodes = 4392 (156)
Deterministic time = 15301.06 ticks  (558.94 ticks/sec)

CPLEX> Incumbent solution written to file 'C:\Users\llavin\Desktop\test826\logs\tmp8bfvxe07.cplex.sol'.
CPLEX> Exporting results... 
